c File: instances/18_0.25_3.col
c
c Description: Random graph of size 18 vertices and P(0.25) of edges between any two vertices.
p col 18 153
e 1 7
e 1 8
e 1 11
e 1 13
e 2 9
e 3 4
e 3 6
e 3 10
e 3 16
e 3 17
e 4 7
e 4 12
e 4 16
e 5 6
e 5 9
e 5 12
e 5 15
e 6 8
e 6 18
e 7 10
e 7 11
e 7 14
e 8 15
e 8 18
e 9 10
e 9 15
e 9 16
e 9 18
e 10 16
e 10 17
e 10 18
e 11 12
e 11 13
e 11 15
e 12 15
e 13 17
e 13 18
e 14 15
e 16 18
e 17 18